c Result of efficient AIG-to-CNF conversion using package CNF
p cnf 26 85
-2 -3 12 0
-2 -9 12 0
-2 11 12 0
2 -12 0
2 3 9 -11 0
-3 5 6 0
-3 -4 6 -8 0
3 -6 0
3 -5 8 0
3 4 -5 0
-4 21 22 0
4 -21 0
4 -22 0
5 -24 -25 0
-5 24 0
-5 25 0
6 21 -22 -7 0
6 -21 23 -7 0
6 22 -23 -7 0
-6 7 0
-6 21 22 23 0
-6 -21 -22 -23 0
7 24 -25 0
7 -24 25 0
-7 -24 -25 0
-7 24 25 0
-8 21 23 0
-8 22 23 0
8 -23 0
8 -21 -22 0
9 -4 10 -8 0
-9 4 0
-9 -10 0
-9 8 0
-10 24 25 0
10 -24 0
10 -25 0
11 -26 -27 0
-11 26 0
-11 27 0
-12 3 -13 15 0
-12 3 14 15 0
-12 -13 14 15 0
12 -3 13 0
12 13 -14 0
12 -15 0
12 -3 -14 0
-13 26 27 0
13 -26 0
13 -27 0
14 -4 10 -8 13 0
-14 -10 0
-14 8 0
-14 4 0
-14 -13 0
15 -20 0
15 26 -27 -16 0
15 -26 27 -16 0
-15 16 20 0
-15 26 27 20 0
-15 -26 -27 20 0
-16 17 -19 0
-16 4 10 17 0
-16 -4 -10 17 0
16 -17 0
16 4 -10 19 0
16 -4 10 19 0
17 23 18 -7 0
17 -23 18 10 0
-17 -18 0
-17 -23 -10 0
-17 23 7 0
18 -21 -22 0
-18 21 0
-18 22 0
19 -23 7 0
-19 23 0
-19 -7 0
20 -23 -18 -5 -13 0
-20 5 0
-20 13 0
-20 23 0
-20 18 0
-28 0
2 0

